\ Model Master Problem
\ LP format - for model browsing. Use MPS format to capture full model detail.
Minimize
  - 12 x[0] - 20 x[1] - 18 x[2] - 40 x[3] - 12 x[4] - 20 x[5] - 18 x[6]
   - 40 x[7] - 12 x[8] - 20 x[9] - 18 x[10] - 40 x[11] - 12 x[12]
   - 20 x[13] - 18 x[14] - 40 x[15] - 12 x[16] - 20 x[17] - 18 x[18]
   - 40 x[19] + eta
Subject To
 First_Stage_Constr_0: = 0
 First_Stage_Constr_1: = 0
 First_Stage_Constr_2: = 0
 First_Stage_Constr_3: = 0
 First_Stage_Constr_4: = 0
 First_Stage_Constr_5: = 0
 First_Stage_Constr_6: = 0
 First_Stage_Constr_7: = 0
 First_Stage_Constr_8: = 0
 First_Stage_Constr_9: = 0
 R10: - 187.321004223119 x[0] - 222.8424438829744 x[1]
   - 290.5125798689554 x[2] - 598.4009351395998 x[3]
   - 187.321004223119 x[4] - 222.8424438829744 x[5]
   - 290.5125798689554 x[6] - 598.4009351395998 x[7]
   - 187.321004223119 x[8] - 222.8424438829744 x[9]
   - 290.5125798689554 x[10] - 598.4009351395998 x[11]
   - 187.321004223119 x[12] - 222.8424438829744 x[13]
   - 290.5125798689554 x[14] - 598.4009351395998 x[15]
   - 187.321004223119 x[16] - 222.8424438829744 x[17]
   - 290.5125798689554 x[18] - 598.4009351395998 x[19] + eta
   >= -309929.0858589414
 R11: - 145.272322100061 x[0] - 249.9479893716841 x[1]
   - 241.00695288075 x[2] - 419.0646597057271 x[3] - 145.272322100061 x[4]
   - 249.9479893716841 x[5] - 241.00695288075 x[6] - 419.0646597057271 x[7]
   - 145.272322100061 x[8] - 249.9479893716841 x[9] - 241.00695288075 x[10]
   - 419.0646597057271 x[11] - 145.272322100061 x[12]
   - 249.9479893716841 x[13] - 241.00695288075 x[14]
   - 419.0646597057271 x[15] - 145.272322100061 x[16]
   - 249.9479893716841 x[17] - 241.00695288075 x[18]
   - 419.0646597057271 x[19] + eta >= -129393.8566369582
 R12: - 123.4589288657425 x[0] - 137.7736747469893 x[1]
   - 164.7820221225888 x[2] - 287.9407296996804 x[3]
   - 123.4589288657425 x[4] - 137.7736747469893 x[5]
   - 164.7820221225888 x[6] - 287.9407296996804 x[7]
   - 123.4589288657425 x[8] - 137.7736747469893 x[9]
   - 164.7820221225888 x[10] - 287.9407296996804 x[11]
   - 123.4589288657425 x[12] - 137.7736747469893 x[13]
   - 164.7820221225888 x[14] - 287.9407296996804 x[15]
   - 123.4589288657425 x[16] - 137.7736747469893 x[17]
   - 164.7820221225888 x[18] - 287.9407296996804 x[19] + eta
   >= -26948.28626059563
 R13: - 48.5350256210468 x[0] - 117.6116547698314 x[1]
   - 89.98100311031749 x[2] - 131.4269805995883 x[3]
   - 48.5350256210468 x[4] - 117.6116547698314 x[5]
   - 89.98100311031749 x[6] - 131.4269805995883 x[7]
   - 48.5350256210468 x[8] - 117.6116547698314 x[9]
   - 89.98100311031749 x[10] - 131.4269805995883 x[11]
   - 48.5350256210468 x[12] - 117.6116547698314 x[13]
   - 89.98100311031749 x[14] - 131.4269805995883 x[15]
   - 48.5350256210468 x[16] - 117.6116547698314 x[17]
   - 89.98100311031749 x[18] - 131.4269805995883 x[19] + eta
   >= -13452.55539596174
 R14: - 33.6349998005801 x[0] - 21.28506583482612 x[1]
   - 38.19985029119619 x[2] - 72.70172795698355 x[3]
   - 33.6349998005801 x[4] - 21.28506583482612 x[5]
   - 38.19985029119619 x[6] - 72.70172795698355 x[7]
   - 33.6349998005801 x[8] - 21.28506583482612 x[9]
   - 38.19985029119619 x[10] - 72.70172795698355 x[11]
   - 33.6349998005801 x[12] - 21.28506583482612 x[13]
   - 38.19985029119619 x[14] - 72.70172795698355 x[15]
   - 33.6349998005801 x[16] - 21.28506583482612 x[17]
   - 38.19985029119619 x[18] - 72.70172795698355 x[19] + eta
   >= -4776.989390825103
 R15: - 4.714203108719497 x[0] - 11.09273167047454 x[1]
   - 8.541320245772527 x[2] - 12.36843738282555 x[3]
   - 4.714203108719497 x[4] - 11.09273167047454 x[5]
   - 8.541320245772527 x[6] - 12.36843738282555 x[7]
   - 4.714203108719497 x[8] - 11.09273167047454 x[9]
   - 8.541320245772527 x[10] - 12.36843738282555 x[11]
   - 4.714203108719497 x[12] - 11.09273167047454 x[13]
   - 8.541320245772527 x[14] - 12.36843738282555 x[15]
   - 4.714203108719497 x[16] - 11.09273167047454 x[17]
   - 8.541320245772527 x[18] - 12.36843738282555 x[19] + eta
   >= -777.239481369077
 R16: - 38.12552603350089 x[0] - 70.17062093053799 x[1]
   - 61.62668232035396 x[2] - 95.8130869787839 x[3]
   - 38.12552603350089 x[4] - 70.17062093053799 x[5]
   - 61.62668232035396 x[6] - 95.8130869787839 x[7]
   - 38.12552603350089 x[8] - 70.17062093053799 x[9]
   - 61.62668232035396 x[10] - 95.8130869787839 x[11]
   - 38.12552603350089 x[12] - 70.17062093053799 x[13]
   - 61.62668232035396 x[14] - 95.8130869787839 x[15]
   - 38.12552603350089 x[16] - 70.17062093053799 x[17]
   - 61.62668232035396 x[18] - 95.8130869787839 x[19] + eta
   >= -7789.194774426894
 R17: - 23.12204180076524 x[0] - 32.56076871037476 x[1]
   - 33.33185457275376 x[2] - 54.9081089102994 x[3]
   - 23.12204180076524 x[4] - 32.56076871037476 x[5]
   - 33.33185457275376 x[6] - 54.9081089102994 x[7]
   - 23.12204180076524 x[8] - 32.56076871037476 x[9]
   - 33.33185457275376 x[10] - 54.9081089102994 x[11]
   - 23.12204180076524 x[12] - 32.56076871037476 x[13]
   - 33.33185457275376 x[14] - 54.9081089102994 x[15]
   - 23.12204180076524 x[16] - 32.56076871037476 x[17]
   - 33.33185457275376 x[18] - 54.9081089102994 x[19] + eta
   >= -3714.966921553126
 R18: - 15.7572328744977 x[0] - 12.21524791180485 x[1]
   - 18.73849783555908 x[2] - 34.48590264331317 x[3]
   - 15.7572328744977 x[4] - 12.21524791180485 x[5]
   - 18.73849783555908 x[6] - 34.48590264331317 x[7]
   - 15.7572328744977 x[8] - 12.21524791180485 x[9]
   - 18.73849783555908 x[10] - 34.48590264331317 x[11]
   - 15.7572328744977 x[12] - 12.21524791180485 x[13]
   - 18.73849783555908 x[14] - 34.48590264331317 x[15]
   - 15.7572328744977 x[16] - 12.21524791180485 x[17]
   - 18.73849783555908 x[18] - 34.48590264331317 x[19] + eta
   >= -1967.853840553691
 R19: - 11.89345002295716 x[0] - 18.80747243337914 x[1]
   - 17.93126753586509 x[2] - 28.69259521540988 x[3]
   - 11.89345002295716 x[4] - 18.80747243337914 x[5]
   - 17.93126753586509 x[6] - 28.69259521540988 x[7]
   - 11.89345002295716 x[8] - 18.80747243337914 x[9]
   - 17.93126753586509 x[10] - 28.69259521540988 x[11]
   - 11.89345002295716 x[12] - 18.80747243337914 x[13]
   - 17.93126753586509 x[14] - 28.69259521540988 x[15]
   - 11.89345002295716 x[16] - 18.80747243337914 x[17]
   - 17.93126753586509 x[18] - 28.69259521540988 x[19] + eta
   >= -1760.966988447203
 R20: - 18.56496908271239 x[0] - 20.93308887030447 x[1]
   - 24.67624426804209 x[2] - 42.51352773530787 x[3]
   - 18.56496908271239 x[4] - 20.93308887030447 x[5]
   - 24.67624426804209 x[6] - 42.51352773530787 x[7]
   - 18.56496908271239 x[8] - 20.93308887030447 x[9]
   - 24.67624426804209 x[10] - 42.51352773530787 x[11]
   - 18.56496908271239 x[12] - 20.93308887030447 x[13]
   - 24.67624426804209 x[14] - 42.51352773530787 x[15]
   - 18.56496908271239 x[16] - 20.93308887030447 x[17]
   - 24.67624426804209 x[18] - 42.51352773530787 x[19] + eta
   >= -2618.812225993225
 R21: - 12.79162160045363 x[0] - 14.22785057307599 x[1]
   - 16.90764195011845 x[2] - 29.15936971501179 x[3]
   - 12.79162160045363 x[4] - 14.22785057307599 x[5]
   - 16.90764195011845 x[6] - 29.15936971501179 x[7]
   - 12.79162160045363 x[8] - 14.22785057307599 x[9]
   - 16.90764195011845 x[10] - 29.15936971501179 x[11]
   - 12.79162160045363 x[12] - 14.22785057307599 x[13]
   - 16.90764195011845 x[14] - 29.15936971501179 x[15]
   - 12.79162160045363 x[16] - 14.22785057307599 x[17]
   - 16.90764195011845 x[18] - 29.15936971501179 x[19] + eta
   >= -1664.22589532261
 R22: - 14.52735305755227 x[0] - 19.16803807645309 x[1]
   - 20.40254525868117 x[2] - 34.00469043428104 x[3]
   - 14.52735305755227 x[4] - 19.16803807645309 x[5]
   - 20.40254525868117 x[6] - 34.00469043428104 x[7]
   - 14.52735305755227 x[8] - 19.16803807645309 x[9]
   - 20.40254525868117 x[10] - 34.00469043428104 x[11]
   - 14.52735305755227 x[12] - 19.16803807645309 x[13]
   - 20.40254525868117 x[14] - 34.00469043428104 x[15]
   - 14.52735305755227 x[16] - 19.16803807645309 x[17]
   - 20.40254525868117 x[18] - 34.00469043428104 x[19] + eta
   >= -2066.379036847833
 R23: - 15.13753011920144 x[0] - 17.39422448355701 x[1]
   - 20.23903112924451 x[2] - 34.70924311786188 x[3]
   - 15.13753011920144 x[4] - 17.39422448355701 x[5]
   - 20.23903112924451 x[6] - 34.70924311786188 x[7]
   - 15.13753011920144 x[8] - 17.39422448355701 x[9]
   - 20.23903112924451 x[10] - 34.70924311786188 x[11]
   - 15.13753011920144 x[12] - 17.39422448355701 x[13]
   - 20.23903112924451 x[14] - 34.70924311786188 x[15]
   - 15.13753011920144 x[16] - 17.39422448355701 x[17]
   - 20.23903112924451 x[18] - 34.70924311786188 x[19] + eta
   >= -2066.364412193928
Bounds
 x[0] <= 500
 x[1] <= 500
 x[2] <= 500
 x[3] <= 500
 x[4] <= 500
 x[5] <= 500
 x[6] <= 500
 x[7] <= 500
 x[8] <= 500
 x[9] <= 500
 x[10] <= 500
 x[11] <= 500
 x[12] <= 500
 x[13] <= 500
 x[14] <= 500
 x[15] <= 500
 x[16] <= 500
 x[17] <= 500
 x[18] <= 500
 x[19] <= 500
 eta >= -3000
End
